\ This file has been generated by DOcplex
\ ENCODING=ISO-8859-1
\Problem name: LABS of size 7

Minimize
 obj: [ 2 C_1^2 + 2 C_2^2 + 2 C_3^2 + 2 C_4^2 + 2 C_5^2 + 2 C_6^2 ]/2
Subject To
 c1: - 4 b_1 - 4 b_2 - 4 b_3 - 4 b_4 - 4 b_5 - 2 b_6 - 2 b_7 + 4 b_y_1_2
     + 4 b_y_2_3 + 4 b_y_3_4 + 4 b_y_4_5 + 4 b_y_5_6 + 4 b_y_6_7 - C_1 = -6
 c2: - 2 b_1 - 4 b_2 - 4 b_3 - 4 b_4 - 2 b_5 - 2 b_6 - 2 b_7 + 4 b_y_1_3
     + 4 b_y_2_4 + 4 b_y_3_5 + 4 b_y_4_6 + 4 b_y_5_7 - C_2 = -5
 c3: - 2 b_1 - 2 b_2 - 4 b_3 - 2 b_4 - 2 b_5 - 2 b_6 - 2 b_7 + 4 b_y_1_4
     + 4 b_y_2_5 + 4 b_y_3_6 + 4 b_y_4_7 - C_3 = -4
 c4: - 2 b_1 - 2 b_2 - 2 b_4 - 2 b_5 - 2 b_6 - 2 b_7 + 4 b_y_1_5 + 4 b_y_2_6
     + 4 b_y_3_7 - C_4 = -3
 c5: - 2 b_1 - 2 b_5 - 2 b_6 - 2 b_7 + 4 b_y_1_6 + 4 b_y_2_7 - C_5 = -2
 c6: - 2 b_6 - 2 b_7 + 4 b_y_1_7 - C_6 = -1
 c7: b_y_1_2 - 0.500000000000 b_1 - 0.500000000000 b_2 <= 0
 c8: b_y_1_2 - b_1 - b_2 >= -1
 c9: b_y_2_3 - 0.500000000000 b_2 - 0.500000000000 b_3 <= 0
 c10: b_y_2_3 - b_2 - b_3 >= -1
 c11: b_y_3_4 - 0.500000000000 b_3 - 0.500000000000 b_4 <= 0
 c12: b_y_3_4 - b_3 - b_4 >= -1
 c13: b_y_4_5 - 0.500000000000 b_4 - 0.500000000000 b_5 <= 0
 c14: b_y_4_5 - b_4 - b_5 >= -1
 c15: b_y_5_6 - 0.500000000000 b_5 - 0.500000000000 b_6 <= 0
 c16: b_y_5_6 - b_5 - b_6 >= -1
 c17: b_y_6_7 - 0.500000000000 b_6 - 0.500000000000 b_7 <= 0
 c18: b_y_6_7 - b_6 - b_7 >= -1
 c19: b_y_1_3 - 0.500000000000 b_1 - 0.500000000000 b_3 <= 0
 c20: b_y_1_3 - b_1 - b_3 >= -1
 c21: b_y_2_4 - 0.500000000000 b_2 - 0.500000000000 b_4 <= 0
 c22: b_y_2_4 - b_2 - b_4 >= -1
 c23: b_y_3_5 - 0.500000000000 b_3 - 0.500000000000 b_5 <= 0
 c24: b_y_3_5 - b_3 - b_5 >= -1
 c25: b_y_4_6 - 0.500000000000 b_4 - 0.500000000000 b_6 <= 0
 c26: b_y_4_6 - b_4 - b_6 >= -1
 c27: b_y_5_7 - 0.500000000000 b_5 - 0.500000000000 b_7 <= 0
 c28: b_y_5_7 - b_5 - b_7 >= -1
 c29: b_y_1_4 - 0.500000000000 b_1 - 0.500000000000 b_4 <= 0
 c30: b_y_1_4 - b_1 - b_4 >= -1
 c31: b_y_2_5 - 0.500000000000 b_2 - 0.500000000000 b_5 <= 0
 c32: b_y_2_5 - b_2 - b_5 >= -1
 c33: b_y_3_6 - 0.500000000000 b_3 - 0.500000000000 b_6 <= 0
 c34: b_y_3_6 - b_3 - b_6 >= -1
 c35: b_y_4_7 - 0.500000000000 b_4 - 0.500000000000 b_7 <= 0
 c36: b_y_4_7 - b_4 - b_7 >= -1
 c37: b_y_1_5 - 0.500000000000 b_1 - 0.500000000000 b_5 <= 0
 c38: b_y_1_5 - b_1 - b_5 >= -1
 c39: b_y_2_6 - 0.500000000000 b_2 - 0.500000000000 b_6 <= 0
 c40: b_y_2_6 - b_2 - b_6 >= -1
 c41: b_y_3_7 - 0.500000000000 b_3 - 0.500000000000 b_7 <= 0
 c42: b_y_3_7 - b_3 - b_7 >= -1
 c43: b_y_1_6 - 0.500000000000 b_1 - 0.500000000000 b_6 <= 0
 c44: b_y_1_6 - b_1 - b_6 >= -1
 c45: b_y_2_7 - 0.500000000000 b_2 - 0.500000000000 b_7 <= 0
 c46: b_y_2_7 - b_2 - b_7 >= -1
 c47: b_y_1_7 - 0.500000000000 b_1 - 0.500000000000 b_7 <= 0
 c48: b_y_1_7 - b_1 - b_7 >= -1

Bounds
 0 <= b_1 <= 1
 0 <= b_2 <= 1
 0 <= b_3 <= 1
 0 <= b_4 <= 1
 0 <= b_5 <= 1
 0 <= b_6 <= 1
 0 <= b_7 <= 1
 0 <= b_y_1_2 <= 1
 0 <= b_y_2_3 <= 1
 0 <= b_y_3_4 <= 1
 0 <= b_y_4_5 <= 1
 0 <= b_y_5_6 <= 1
 0 <= b_y_6_7 <= 1
 0 <= b_y_1_3 <= 1
 0 <= b_y_2_4 <= 1
 0 <= b_y_3_5 <= 1
 0 <= b_y_4_6 <= 1
 0 <= b_y_5_7 <= 1
 0 <= b_y_1_4 <= 1
 0 <= b_y_2_5 <= 1
 0 <= b_y_3_6 <= 1
 0 <= b_y_4_7 <= 1
 0 <= b_y_1_5 <= 1
 0 <= b_y_2_6 <= 1
 0 <= b_y_3_7 <= 1
 0 <= b_y_1_6 <= 1
 0 <= b_y_2_7 <= 1
 0 <= b_y_1_7 <= 1
 -6 <= C_1 <= 6
 -5 <= C_2 <= 5
 -4 <= C_3 <= 4
 -3 <= C_4 <= 3
 -2 <= C_5 <= 2
 -1 <= C_6 <= 1

Binaries
 b_1 b_2 b_3 b_4 b_5 b_6 b_7 b_y_1_2 b_y_2_3 b_y_3_4 b_y_4_5 b_y_5_6 b_y_6_7
 b_y_1_3 b_y_2_4 b_y_3_5 b_y_4_6 b_y_5_7 b_y_1_4 b_y_2_5 b_y_3_6 b_y_4_7 b_y_1_5
 b_y_2_6 b_y_3_7 b_y_1_6 b_y_2_7 b_y_1_7

Generals
 C_1 C_2 C_3 C_4 C_5 C_6
End
